%%%mzn-stat: initTime=0.01174218
%%%mzn-stat: objective=332
%%%mzn-stat: nodes=412
%%%mzn-stat: restarts=0
%%%mzn-stat: peakDepth=79
%%%mzn-stat: solveTime=0.037324681
%%%mzn-stat: variables=478
%%%mzn-stat: propagators=333
%%%mzn-stat: failures=333
%%%mzn-stat: propagations=95183
%%%mzn-stat: nogoods=333
%%%mzn-stat: AverageConflictSize=2.045045045045045
%%%mzn-stat: NumUnitNogoodsLearned=331
%%%mzn-stat: AverageLearnedNogoodLength=1.0690690690690692
%%%mzn-stat: AverageBacktrackAmount=0
%%%mzn-stat: AverageLbd=1.006006006006006
%%%mzn-stat-end
maxleg = 332;
succ = array1d(1..20,[5, 1, 12, 14, 7, 2, 16, 20, 17, 6, 13, 10, 18, 3, 8, 11, 19, 9, 15, 4]);
% time elapsed: 6.33 s
----------
==========
% time elapsed: 6.33 s
%%%mzn-stat: initTime=0.01174218
%%%mzn-stat: objective=332
%%%mzn-stat: nodes=412
%%%mzn-stat: restarts=0
%%%mzn-stat: peakDepth=79
%%%mzn-stat: solveTime=0.037333234
%%%mzn-stat: variables=478
%%%mzn-stat: propagators=333
%%%mzn-stat: failures=333
%%%mzn-stat: propagations=95183
%%%mzn-stat: nogoods=333
%%%mzn-stat: AverageConflictSize=2.045045045045045
%%%mzn-stat: NumUnitNogoodsLearned=331
%%%mzn-stat: AverageLearnedNogoodLength=1.0690690690690692
%%%mzn-stat: AverageBacktrackAmount=0
%%%mzn-stat: AverageLbd=1.006006006006006
%%%mzn-stat-end
